<number of tasks>
50

<cycle time>
1000

<order strength>
0.896


<task times>
1 53
2 185
3 210
4 86
5 117
6 60
7 113
8 53
9 136
10 170
11 483
12 429
13 185
14 236
15 475
16 138
17 73
18 33
19 198
20 258
21 264
22 118
23 136
24 97
25 183
26 47
27 82
28 187
29 204
30 256
31 338
32 523
33 118
34 600
35 322
36 405
37 167
38 164
39 47
40 295
41 47
42 204
43 280
44 182
45 111
46 40
47 160
48 116
49 556
50 55

<precedence relations>
1,4
1,5
1,6
1,7
1,8
2,4
2,5
2,6
2,7
2,8
3,4
3,5
3,6
3,7
3,8
4,9
5,9
6,9
7,9
8,9
9,10
9,11
9,12
10,13
10,14
10,15
11,13
11,14
11,15
12,13
12,14
12,15
13,16
13,17
13,18
13,19
14,16
14,17
14,18
14,19
15,16
15,17
15,18
15,19
16,20
17,20
18,20
19,20
20,21
20,22
20,23
21,24
21,25
22,24
22,25
23,24
23,25
24,26
24,27
25,26
25,27
26,28
26,29
26,30
27,28
27,29
27,30
28,31
28,32
29,31
29,32
30,33
31,34
32,33
32,35
33,36
33,37
33,38
34,39
34,43
36,41
37,40
38,40
39,40
40,42
40,49
41,42
41,43
42,44
43,45
43,46
43,47
44,48
45,50
46,49

<end>
